; benchmark generated from python API
(set-info :status unknown)
(declare-datatypes ((RealState 0)) (((RMk1 (rval1 Real)) (RMk2 (rval2 Real)))))
 (assert
 (exists ((|v11:0_st| RealState) (val!5356 Real) )(exists ((|v10:1_st| RealState) (val!5357 Real) )(exists ((|v9:2_st| RealState) (val!5358 Real) )(exists ((|v8:3_st| RealState) (val!5359 Real) )(forall ((|v7:4| Real) )(forall ((|v6:5| Real) )(forall ((|v5:6| Real) )(forall ((|v4:7| Real) )(exists ((|v3:8_st| RealState) (val!5360 Real) )(exists ((|v2:9_st| RealState) (val!5361 Real) )(exists ((|v1:10_st| RealState) (val!5362 Real) )(exists ((|v0:11_st| RealState) (val!5363 Real) )(let ((?x3044 (- 20.0)))
 (let ((?x1415 (- 15.0)))
 (let ((?x2873 (* ?x1415 |v7:4|)))
 (let ((?x3138 (rval2 |v1:10_st|)))
 (let ((?x993 (* 4.0 ?x3138)))
 (let ((?x2557 (+ (+ (+ (* (- 12.0) (rval2 |v3:8_st|)) (* 15.0 (rval2 |v10:1_st|))) ?x993) ?x2873)))
 (let ((?x2749 (- 17.0)))
 (let ((?x3071 (rval2 |v8:3_st|)))
 (let ((?x2106 (* 8.0 ?x3071)))
 (let ((?x721 (rval2 |v0:11_st|)))
 (let ((?x2696 (* 7.0 ?x721)))
 (let (($x2944 (<= (+ (+ (+ (* 19.0 |v7:4|) (* (- 14.0) (rval2 |v3:8_st|))) ?x2696) ?x2106) ?x2749)))
 (let ((?x2096 (- 10.0)))
 (let ((?x2250 (rval2 |v10:1_st|)))
 (let ((?x770 (* 12.0 ?x2250)))
 (let (($x111 (<= (+ (+ (+ (* ?x2749 ?x3071) (* ?x1415 |v4:7|)) (* 20.0 ?x2250)) ?x770) ?x2096)))
 (let ((?x1319 (- 13.0)))
 (let ((?x2384 (* ?x1319 |v4:7|)))
 (let ((?x678 (+ (+ (+ (* 0.0 |v6:5|) (* 15.0 (rval2 |v9:2_st|))) (* 19.0 |v7:4|)) ?x2384)))
 (let ((?x573 (+ (+ (* (- 6.0) (rval2 |v9:2_st|)) (* (- 7.0) |v6:5|)) (* (- 14.0) (rval2 |v11:0_st|)))))
 (let ((?x2648 (- 8.0)))
 (let ((?x220 (rval2 |v11:0_st|)))
 (let ((?x2503 (- 3.0)))
 (let ((?x410 (* ?x2503 ?x220)))
 (let ((?x2244 (+ (+ (+ (* 20.0 |v4:7|) (* (- 14.0) (rval2 |v2:9_st|))) (* 10.0 ?x2250)) ?x410)))
 (let ((?x80 (+ (+ (+ (* (- 11.0) ?x220) (* (- 2.0) |v7:4|)) (* ?x2503 ?x3071)) (* (- 18.0) (rval2 |v3:8_st|)))))
 (let ((?x3147 (rval2 |v9:2_st|)))
 (let ((?x2030 (* ?x2749 ?x3147)))
 (let ((?x1312 (+ (+ (+ (* (- 9.0) ?x3147) (* (- 12.0) ?x721)) ?x2030) (* (- 19.0) ?x3147))))
 (let (($x819 (and (and (<= ?x1312 19.0) (<= ?x80 ?x2749)) (and (<= ?x2244 ?x2648) (<= (+ ?x573 (* 16.0 (rval2 |v3:8_st|))) ?x2749)))))
 (let (($x1100 (and $x819 (and (and (<= ?x678 16.0) $x111) (and $x2944 (<= ?x2557 ?x3044))))))
 (let ((?x977 (- 6.0)))
 (let ((?x1774 (- 11.0)))
 (let ((?x991 (* ?x1774 |v6:5|)))
 (let ((?x729 (+ (+ (+ (* 13.0 |v7:4|) (* (- 2.0) ?x3071)) (* ?x2096 (rval2 |v2:9_st|))) ?x991)))
 (let ((?x2166 (+ (+ (+ (* ?x1415 ?x2250) (* 14.0 |v7:4|)) (* (- 5.0) (rval2 |v2:9_st|))) (* (- 12.0) |v4:7|))))
 (let ((?x2271 (+ (+ (+ (* 15.0 |v6:5|) (* 5.0 ?x721)) (* 17.0 ?x3147)) (* (- 4.0) ?x3138))))
 (let ((?x2946 (- 12.0)))
 (let ((?x1202 (* ?x2503 |v6:5|)))
 (let ((?x3370 (+ (+ (+ (* 4.0 (rval2 |v3:8_st|)) (* ?x1415 ?x2250)) (* (- 5.0) ?x3147)) ?x1202)))
 (let (($x439 (and (and (<= ?x3370 ?x2946) (<= ?x2271 ?x977)) (and (<= ?x2166 3.0) (<= ?x729 ?x977)))))
 (let ((?x250 (* ?x2096 |v5:6|)))
 (let (($x2390 (<= (+ (+ (+ (* 13.0 ?x3071) (* ?x3044 ?x3138)) (* 18.0 ?x220)) ?x250) 10.0)))
 (let ((?x1924 (+ (+ (+ (* ?x977 |v6:5|) (* 14.0 |v7:4|)) (* (- 7.0) |v7:4|)) (* (- 16.0) (rval2 |v2:9_st|)))))
 (let (($x904 (<= (+ (+ (+ (* 14.0 ?x3071) |v5:6|) (* 2.0 ?x220)) (* 15.0 ?x2250)) ?x2503)))
 (let ((?x1709 (- 16.0)))
 (let ((?x1035 (* 8.0 ?x220)))
 (let (($x667 (<= (+ (+ (+ (* 5.0 ?x220) (* 3.0 |v7:4|)) (* ?x2749 |v7:4|)) ?x1035) ?x1709)))
 (let (($x287 (and (or (and (and $x667 $x904) (and (<= ?x1924 8.0) $x2390)) $x439) $x1100)))
 (let ((?x1866 (+ (+ (+ (* 9.0 |v7:4|) (* 19.0 ?x3138)) (* ?x2503 (rval2 |v2:9_st|))) (* (- 4.0) (rval2 |v2:9_st|)))))
 (let ((?x273 (rval2 |v2:9_st|)))
 (let ((?x961 (- 2.0)))
 (let ((?x1729 (* ?x961 ?x273)))
 (let (($x1533 (<= (+ (+ (+ (* ?x2096 ?x3071) (* ?x2503 |v5:6|)) (* (- 19.0) |v7:4|)) ?x1729) 8.0)))
 (let ((?x1589 (* 5.0 ?x3147)))
 (let ((?x227 (+ (+ (+ (* 12.0 ?x3138) (* ?x1774 ?x721)) (* ?x1774 (rval2 |v3:8_st|))) ?x1589)))
 (let ((?x71 (- 9.0)))
 (let ((?x401 (* 13.0 |v5:6|)))
 (let (($x1210 (<= (+ (+ (+ (* (- 1.0) |v6:5|) (* ?x71 ?x2250)) (* 3.0 ?x721)) ?x401) ?x71)))
 (let ((?x1140 (+ (+ (+ (* 20.0 ?x3071) (* ?x961 (rval2 |v3:8_st|))) (* (- 19.0) |v7:4|)) (* ?x961 |v5:6|))))
 (let ((?x1039 (+ (+ (+ (* ?x2648 |v7:4|) (* (- 1.0) ?x3147)) (* 19.0 |v5:6|)) (* ?x1774 |v5:6|))))
 (let (($x2421 (<= (+ (+ (+ (* 2.0 ?x3071) (* 7.0 ?x3147)) ?x401) (* 10.0 ?x3138)) ?x1415)))
 (let ((?x2397 (rval2 |v3:8_st|)))
 (let ((?x1477 (- 5.0)))
 (let ((?x1191 (* ?x1477 ?x2397)))
 (let ((?x1331 (+ (+ (+ (* (- 19.0) ?x721) (* 17.0 ?x220)) ?x1191) (* 0.0 ?x220))))
 (let (($x270 (and (and (<= ?x1331 ?x2096) $x2421) (and (<= ?x1039 0.0) (<= ?x1140 19.0)))))
 (let (($x2821 (and $x270 (and (and $x1210 (<= ?x227 ?x2946)) (and $x1533 (<= ?x1866 13.0))))))
 (let ((?x2572 (- 4.0)))
 (let ((?x451 (* ?x2572 ?x3147)))
 (let (($x2687 (<= (+ (+ (+ (* ?x977 |v4:7|) (* 10.0 ?x721)) (* 10.0 ?x273)) ?x451) ?x1415)))
 (let ((?x1673 (+ (+ (+ (* 11.0 ?x3147) (* (- 14.0) |v6:5|)) (* (- 1.0) ?x3147)) (* (- 1.0) ?x3138))))
 (let ((?x2971 (+ (+ (+ (* (- 1.0) ?x220) (* ?x1477 |v7:4|)) (* ?x961 |v4:7|)) (* ?x2648 ?x2397))))
 (let (($x689 (<= (+ (+ (+ (* ?x1774 ?x2397) (* 2.0 ?x721)) (* (- 1.0) |v7:4|)) |v4:7|) ?x2946)))
 (let ((?x1361 (* 4.0 ?x3147)))
 (let ((?x753 (+ (+ (+ (* (- 7.0) ?x2397) (* ?x2503 |v5:6|)) (* (- 18.0) ?x3138)) ?x1361)))
 (let ((?x1748 (+ (+ (+ (* 12.0 ?x3147) (* ?x2096 ?x2397)) (* 5.0 ?x2397)) (* 15.0 ?x2397))))
 (let ((?x3089 (+ (+ (+ (* ?x2503 |v7:4|) (* (- 18.0) |v7:4|)) (* 19.0 ?x3147)) (* ?x2096 ?x2250))))
 (let ((?x1642 (- 18.0)))
 (let (($x1301 (<= (+ (+ (+ (* 14.0 ?x2250) (* ?x977 ?x3147)) (* 10.0 ?x3138)) ?x721) ?x1642)))
 (let (($x1688 (or (or $x1301 (<= ?x3089 12.0)) (and (<= ?x1748 13.0) (<= ?x753 ?x2572)))))
 (let (($x3035 (and $x1688 (and (and $x689 (<= ?x2971 8.0)) (and (<= ?x1673 ?x2572) $x2687)))))
 (let ((?x149 (+ (+ (+ (* 7.0 ?x220) (* ?x2503 ?x3147)) (* ?x2648 ?x3147)) (* ?x977 ?x273))))
 (let ((?x1204 (* 12.0 ?x3138)))
 (let (($x1236 (<= (+ (+ (+ (* ?x2096 |v6:5|) (* 19.0 ?x721)) (* (- 7.0) |v7:4|)) ?x1204) 8.0)))
 (let ((?x2072 (- 14.0)))
 (let ((?x1545 (* ?x2072 ?x3138)))
 (let (($x905 (or (<= (+ (+ (+ (* 14.0 ?x3138) ?x2384) (* 7.0 |v5:6|)) ?x1545) 12.0) (<= (+ (+ (+ ?x2030 (* ?x1415 ?x721)) ?x410) (* ?x1477 ?x721)) ?x1477))))
 (let ((?x3293 (* 4.0 |v7:4|)))
 (let (($x3146 (<= (+ (+ (+ (* 2.0 ?x3138) (* 4.0 |v6:5|)) (* 20.0 ?x273)) ?x3293) ?x1477)))
 (let (($x556 (<= (+ (+ (+ ?x1202 (* (- 19.0) |v4:7|)) (* 5.0 |v5:6|)) (* ?x3044 ?x2397)) 10.0)))
 (let ((?x1605 (* ?x961 |v6:5|)))
 (let (($x3011 (<= (+ (+ (+ (* 8.0 ?x3138) (* ?x1477 ?x273)) (* 19.0 |v6:5|)) ?x1605) ?x2749)))
 (let ((?x194 (* 0.0 |v4:7|)))
 (let (($x2178 (<= (+ (+ (+ (* ?x3044 |v7:4|) (* 5.0 ?x273)) (* 19.0 |v7:4|)) ?x194) 7.0)))
 (let (($x1885 (and (and (or $x2178 $x3011) (and $x556 $x3146)) (and $x905 (and $x1236 (<= ?x149 5.0))))))
 (let (($x1503 (<= (+ (+ (+ (* 4.0 ?x721) ?x2397) (* ?x2503 ?x3071)) (* ?x1642 ?x721)) ?x1319)))
 (let (($x1691 (<= (+ (+ (+ ?x991 (* ?x1642 ?x220)) (* 18.0 |v7:4|)) (* ?x1642 ?x3071)) ?x2096)))
 (let ((?x2372 (* 19.0 ?x273)))
 (let ((?x2922 (+ (+ (+ (* 19.0 ?x220) (* (- 1.0) ?x3071)) (* 9.0 ?x3147)) ?x2372)))
 (let (($x2467 (and (<= (+ (+ (+ |v7:4| (* 2.0 ?x3147)) ?x1191) (* ?x977 |v4:7|)) ?x2648) (<= ?x2922 12.0))))
 (let (($x1984 (<= (+ (+ (+ (* 18.0 ?x3147) (* ?x2072 ?x2397)) (* ?x1415 ?x721)) ?x2372) 3.0)))
 (let (($x1028 (<= (+ (+ (+ (* 20.0 ?x721) (* 13.0 ?x2250)) (* ?x961 ?x2250)) ?x2250) 2.0)))
 (let ((?x595 (+ (+ (+ (* (- 19.0) |v7:4|) (* ?x1774 |v4:7|)) (* ?x1709 ?x3071)) (* ?x71 ?x3138))))
 (let (($x2974 (<= (+ (+ (+ (* 6.0 ?x3147) ?x993) (* ?x1319 ?x3071)) (* ?x3044 |v4:7|)) 17.0)))
 (let (($x3150 (and (and (or $x2974 (<= ?x595 ?x2072)) (and $x1028 $x1984)) (and $x2467 (and $x1691 $x1503)))))
 (let ((?x3349 (* 3.0 ?x2250)))
 (let (($x2404 (<= (+ (+ (+ (* ?x2946 |v7:4|) (* ?x1319 ?x3138)) (* 8.0 ?x2397)) ?x3349) ?x2749)))
 (let (($x2193 (and $x2404 (<= (+ (+ (+ (* 18.0 ?x220) ?x1589) ?x410) (* 6.0 |v6:5|)) 2.0))))
 (let ((?x1174 (* 3.0 ?x220)))
 (let (($x2353 (<= (+ (+ (+ (* ?x1774 ?x220) (* 0.0 ?x3147)) (* 4.0 |v5:6|)) ?x1174) ?x2096)))
 (let (($x2863 (<= (+ (+ (+ (* ?x1415 ?x273) (* 15.0 ?x220)) ?x1545) (* 9.0 ?x3147)) 11.0)))
 (let (($x3190 (<= (+ (+ (+ ?x451 (* ?x71 ?x721)) (* ?x1319 ?x721)) (* ?x1642 ?x3138)) 17.0)))
 (let (($x2900 (<= (+ (+ (+ ?x250 (* 13.0 ?x220)) (* ?x71 ?x2250)) (* 17.0 |v5:6|)) ?x1319)))
 (let (($x1937 (<= (+ (+ (+ ?x451 (* ?x2946 ?x721)) (* ?x2648 |v7:4|)) (* ?x2572 |v6:5|)) ?x2946)))
 (let ((?x1929 (+ (+ (+ (* 7.0 ?x3138) (* 2.0 ?x3147)) (* ?x1774 ?x2250)) (* ?x2749 ?x2250))))
 (let (($x324 (and (and (and (<= ?x1929 ?x71) $x1937) (and $x2900 $x3190)) (and (and $x2863 $x2353) $x2193))))
 (let ((?x1510 (+ (+ (+ (* ?x2072 ?x273) (* 9.0 ?x3147)) (* ?x2572 ?x3071)) (* ?x2749 ?x3138))))
 (let (($x396 (and (<= ?x1510 ?x1319) (<= (+ (+ (+ (* 0.0 ?x3071) (* 20.0 ?x220)) ?x1729) ?x3349) 19.0))))
 (let ((?x499 (+ (+ (+ (* 9.0 |v6:5|) (* 3.0 |v5:6|)) (* 11.0 ?x220)) (* 2.0 |v6:5|))))
 (let ((?x1523 (* 0.0 |v7:4|)))
 (let (($x3424 (<= (+ (+ (+ (* ?x2072 |v4:7|) (* ?x2648 ?x220)) (* (- 19.0) ?x273)) ?x1523) 15.0)))
 (let ((?x209 (+ (+ (+ (* 9.0 ?x2397) (* ?x2648 ?x3147)) (* 9.0 ?x721)) (* 16.0 ?x721))))
 (let ((?x647 (+ (+ (+ (* 20.0 ?x220) (* ?x1642 |v6:5|)) (* ?x1477 |v6:5|)) (* 9.0 ?x220))))
 (let ((?x68 (* 5.0 ?x721)))
 (let (($x2511 (<= (+ (+ (+ (* (- 7.0) ?x273) ?x2873) (* 18.0 |v6:5|)) ?x68) 20.0)))
 (let (($x3171 (<= (+ (+ (+ ?x3071 (* 6.0 ?x3147)) (* 12.0 ?x3147)) (* ?x2749 |v7:4|)) 4.0)))
 (let (($x2319 (and (and (and $x3171 $x2511) (and (<= ?x647 ?x2946) (<= ?x209 16.0))) (and (and $x3424 (<= ?x499 6.0)) $x396))))
 (let (($x264 (and (and (and $x2319 $x324) (and $x3150 $x1885)) (and (and $x3035 $x2821) $x287))))
 (let (($x1161 (not (= |v0:11_st| (RMk1 val!5363)))))
 (let (($x1272 (not (= |v1:10_st| (RMk1 val!5362)))))
 (let (($x1346 (not (= |v2:9_st| (RMk1 val!5361)))))
 (let (($x2005 (not (= |v3:8_st| (RMk1 val!5360)))))
 (let (($x1367 (not (= |v8:3_st| (RMk1 val!5359)))))
 (let (($x3058 (not (= |v9:2_st| (RMk1 val!5358)))))
 (let (($x1294 (not (= |v10:1_st| (RMk1 val!5357)))))
 (let (($x2915 (not (= |v11:0_st| (RMk1 val!5356)))))
 (and $x2915 $x1294 $x3058 $x1367 $x2005 $x1346 $x1272 $x1161 $x264)))))))))))))))))))))))))))))))))))))))))))))))))))))))))))))))))))))))))))))))))))))))))))))))))))))))))))))))))))))))))))))))))))))))))))
 )
 )
 )
 )
 )
 )
 )
 )
 )
 )
 )
 )
(check-sat)
